
  32    4
  10   10   10   10

   0   0   0   0   0  15 2 3 4 5 6 9 10 11 25 26 27 28 29 30 31 
   3   0   1   1   1   6 24 23 22 18 15 12 
   3   1   0   2   4   5 19 17 16 14 13 
   9   4   7   0   5   3 19 14 7 
  10   6   0   6   2   4 18 17 16 13 
   8   3   0   1   3   2 15 8 
   3   0   2   3   4   2 21 20 
   8   3   4   0   5   1 12 
   3   6   2   4   0   1 14 
   6   4   7   0   4   1 13 
   2   2   0   6   3   1 12 
  10   0   5   8   5   1 32
   7   0   5   3   2   1 32
   3   8   0   2   5   1 32
   3   4   2   5   0   1 32
  10   3   6   3   0   1 32
   2   3   6   0   5   1 32
   1   5   5   0   5   1 32
   6   7   0   3   4   1 32
  10   0   3   5   5   1 32
  10   0   5   5   3   1 32
   3   4   5   0   5   1 32
   2   0   2   6   4   1 32
   1   1   0   2   4   1 32
   1   4   0   4   3   1 32
   1   5   2   0   5   1 32
  10   4   3   5   0   1 32
   4   4   2   4   0   1 32
   1   3   4   7   0   1 32
   1   0   5   3   4   1 32
   4   0   5   4   6   1 32
   0   0   0   0   0   0 
